db/data/3219101982143916138243963185520658842.z3.out
-------------------
2500.242872281
